c WARNING: for repeatability, setting FPU to use double precision
d VARIABLES            26433        
d CONSTRAINTS          87066        
c ============================[ Problem Statistics ]=============================
c |                                                                             |
c |  Number of variables:         26433                                         |
c |  Number of clauses:           87066                                         |
c |  Parse time:                   0.02 s                                       |
c |                                                                             |
c ============================[ Search Statistics ]==============================
c | Conflicts |          ORIGINAL         |          LEARNT          | Progress |
c |           |    Vars  Clauses Literals |    Limit  Clauses Lit/Cl |          |
c ===============================================================================
c |       100 |   16402    60396   151994 |    22145       98     54 | 37.949 % |
c |       250 |   16402    60396   151994 |    24359      248     47 | 37.949 % |
c |       475 |   16402    60384   151964 |    26795      470     61 | 37.949 % |
c |       812 |   16402    60384   151964 |    29475      807     58 | 37.949 % |
c |      1318 |   16402    60384   151964 |    32422     1313     51 | 37.949 % |
c |      2077 |   16402    60384   151964 |    35665     2072     46 | 37.949 % |
c |      3216 |   16402    60384   151964 |    39231     3211     45 | 37.949 % |
c |      4924 |   16402    60384   151964 |    43154     4919     48 | 37.949 % |
c |      7486 |   16402    60384   151964 |    47470     7481     46 | 37.949 % |
c |     11330 |   16402    60384   151964 |    52217    11325     44 | 37.949 % |
c |     17096 |   16402    60384   151964 |    57438    17091     44 | 37.949 % |
c |     25745 |   16402    60384   151964 |    63182    25740     45 | 37.949 % |
c |     38719 |   16402    60384   151964 |    69501    38714     44 | 37.949 % |
c |     58180 |   16402    60384   151964 |    76451    58175     42 | 37.949 % |
c |     87372 |   16402    60384   151964 |    84096    18900     37 | 37.949 % |
c |    131161 |   15853    56988   143663 |    92505    23041     37 | 40.026 % |
c ===============================================================================
c restarts              : 364
c conflicts             : 132463         (7428 /sec)
c decisions             : 199894         (0.00 % random) (11209 /sec)
c propagations          : 78912679       (4425064 /sec)
c conflict literals     : 5295023        (56.40 % deleted)
d RESTARTS             364
d FAILURES             132463       
d NODES                199894       
d BACKTRACKS           199894       
d PROPAGATIONS         78912679     
d NOGOODSIZE           39.97 
d MEMORY               36.00 
d TIME                 17.8331 

s UNSATISFIABLE
